n = 6;
ncols = 8;
nrows = 7;
a = [| 4, 3, 4, 6, 5, 0, 6, 6
     | 3, 5, 3, 3, 5, 0, 2, 6
     | 3, 4, 5, 1, 0, 5, 6, 0
     | 1, 1, 5, 1, 2, 4, 2, 4
     | 6, 3, 0, 3, 0, 2, 5, 1
     | 5, 4, 0, 6, 2, 0, 1, 2
     | 1, 6, 2, 3, 1, 4, 4, 2
     |];

% Possible solution:
%
%        4---3   4---6   5   0   6---6
%                        |   |
%        3   5---3   3   5   0   2---6
%        |           |
%        3   4---5   1   0---5   6---0
% 
%        1---1   5---1   2   4---2   4
%                        |           |
%        6   3---0   3   0   2---5   1
%        |           |
%        5   4---0   6   2   0---1   2
%                        |           |
%        1---6   2---3   1   4---4   2

